100 158030
60 44 41 8 98 57 18 13 16 77 88 40 54 19 95 48 6 89 51 69 70 31 100 10 20 7 67 52 24 84 27 62 46 33 81 65 82 3 93 94 71 90 76 74 96 86 39 42 29 2 64 78 21 5 66 4 97 28 79 85 63 73 17 68 87 12 58 50 72 32 34 38 1 22 99 26 36 35 59 37 9 23 53 14 75 83 15 25 11 61 92 47 45 55 91 49 56 43 30 80 
